\* Probes_Placement_Model *\
Minimize
Total_Cost: 41 Medicao_0 + 44 Medicao_1 + 22 Medicao_10 + 2 Medicao_100
 + 15 Medicao_101 + 18 Medicao_102 + 29 Medicao_103 + 16 Medicao_104
 + 29 Medicao_105 + 31 Medicao_106 + 41 Medicao_107 + 15 Medicao_108
 + 28 Medicao_109 + 35 Medicao_11 + 31 Medicao_110 + 42 Medicao_111
 + 26 Medicao_112 + 39 Medicao_113 + 39 Medicao_114 + 36 Medicao_115
 + 42 Medicao_116 + 29 Medicao_117 + 41 Medicao_118 + 39 Medicao_12
 + 47 Medicao_13 + 14 Medicao_14 + 27 Medicao_15 + 28 Medicao_16
 + 38 Medicao_17 + 29 Medicao_18 + 42 Medicao_19 + 29 Medicao_2
 + 41 Medicao_20 + 47 Medicao_21 + 12 Medicao_22 + 25 Medicao_23
 + 26 Medicao_24 + 38 Medicao_25 + 27 Medicao_26 + 40 Medicao_27
 + 39 Medicao_28 + 42 Medicao_29 + 46 Medicao_3 + 44 Medicao_30
 + 31 Medicao_31 + 47 Medicao_32 + 38 Medicao_33 + 45 Medicao_34
 + 19 Medicao_35 + 33 Medicao_36 + 32 Medicao_37 + 46 Medicao_38
 + 7 Medicao_39 + 29 Medicao_4 + 23 Medicao_40 + 21 Medicao_41 + 36 Medicao_42
 + 20 Medicao_43 + 36 Medicao_44 + 33 Medicao_45 + 47 Medicao_46
 + 13 Medicao_48 + 16 Medicao_49 + 45 Medicao_5 + 27 Medicao_50
 + 14 Medicao_51 + 27 Medicao_52 + 29 Medicao_53 + 39 Medicao_54
 + 13 Medicao_55 + 26 Medicao_56 + 29 Medicao_57 + 40 Medicao_58
 + 26 Medicao_59 + 18 Medicao_6 + 39 Medicao_60 + 39 Medicao_61
 + 37 Medicao_62 + 44 Medicao_63 + 39 Medicao_64 + 25 Medicao_65
 + 42 Medicao_66 + 13 Medicao_67 + 29 Medicao_68 + 27 Medicao_69
 + 32 Medicao_7 + 45 Medicao_70 + 6 Medicao_71 + 19 Medicao_72 + 22 Medicao_73
 + 33 Medicao_74 + 20 Medicao_75 + 33 Medicao_76 + 35 Medicao_77
 + 36 Medicao_78 + 46 Medicao_79 + 33 Medicao_8 + 33 Medicao_80
 + 40 Medicao_81 + 24 Medicao_82 + 44 Medicao_83 + 17 Medicao_84
 + 30 Medicao_85 + 33 Medicao_86 + 45 Medicao_87 + 21 Medicao_88
 + 35 Medicao_89 + 47 Medicao_9 + 34 Medicao_90 + 46 Medicao_91 + 9 Medicao_92
 + 25 Medicao_93 + 23 Medicao_94 + 38 Medicao_95 + 22 Medicao_96
 + 38 Medicao_97 + 33 Medicao_98 + 47 Medicao_99
Subject To
Composicao100_115: Medicao_100 - Medicao_115 <= 0
Composicao100_118: Medicao_100 - Medicao_118 <= 0
Composicao100_62: Medicao_100 - Medicao_62 <= 0
Composicao100_63: Medicao_100 - Medicao_63 <= 0
Composicao100_78: Medicao_100 - Medicao_78 <= 0
Composicao101_116: Medicao_101 - Medicao_116 <= 0
Composicao101_62: Medicao_101 - Medicao_62 <= 0
Composicao101_63: Medicao_101 - Medicao_63 <= 0
Composicao101_78: Medicao_101 - Medicao_78 <= 0
Composicao102_118: Medicao_102 - Medicao_118 <= 0
Composicao102_62: Medicao_102 - Medicao_62 <= 0
Composicao102_63: Medicao_102 - Medicao_63 <= 0
Composicao102_81: Medicao_102 - Medicao_81 <= 0
Composicao103_62: Medicao_103 - Medicao_62 <= 0
Composicao103_63: Medicao_103 - Medicao_63 <= 0
Composicao103_83: Medicao_103 - Medicao_83 <= 0
Composicao104_115: Medicao_104 - Medicao_115 <= 0
Composicao104_118: Medicao_104 - Medicao_118 <= 0
Composicao104_63: Medicao_104 - Medicao_63 <= 0
Composicao104_64: Medicao_104 - Medicao_64 <= 0
Composicao105_116: Medicao_105 - Medicao_116 <= 0
Composicao105_63: Medicao_105 - Medicao_63 <= 0
Composicao105_64: Medicao_105 - Medicao_64 <= 0
Composicao106_118: Medicao_106 - Medicao_118 <= 0
Composicao106_63: Medicao_106 - Medicao_63 <= 0
Composicao106_66: Medicao_106 - Medicao_66 <= 0
Composicao107_63: Medicao_107 - Medicao_63 <= 0
Composicao107_70: Medicao_107 - Medicao_70 <= 0
Composicao108_115: Medicao_108 - Medicao_115 <= 0
Composicao108_118: Medicao_108 - Medicao_118 <= 0
Composicao108_78: Medicao_108 - Medicao_78 <= 0
Composicao108_79: Medicao_108 - Medicao_79 <= 0
Composicao109_116: Medicao_109 - Medicao_116 <= 0
Composicao109_78: Medicao_109 - Medicao_78 <= 0
Composicao109_79: Medicao_109 - Medicao_79 <= 0
Composicao10_0: - Medicao_0 + Medicao_10 <= 0
Composicao10_115: Medicao_10 - Medicao_115 <= 0
Composicao10_118: Medicao_10 - Medicao_118 <= 0
Composicao110_118: Medicao_110 - Medicao_118 <= 0
Composicao110_79: Medicao_110 - Medicao_79 <= 0
Composicao110_81: Medicao_110 - Medicao_81 <= 0
Composicao111_79: Medicao_111 - Medicao_79 <= 0
Composicao111_83: Medicao_111 - Medicao_83 <= 0
Composicao112_115: Medicao_112 - Medicao_115 <= 0
Composicao112_118: Medicao_112 - Medicao_118 <= 0
Composicao112_87: Medicao_112 - Medicao_87 <= 0
Composicao113_116: Medicao_113 - Medicao_116 <= 0
Composicao113_87: Medicao_113 - Medicao_87 <= 0
Composicao114_118: Medicao_114 - Medicao_118 <= 0
Composicao114_91: Medicao_114 - Medicao_91 <= 0
Composicao117_115: - Medicao_115 + Medicao_117 <= 0
Composicao117_118: Medicao_117 - Medicao_118 <= 0
Composicao11_0: - Medicao_0 + Medicao_11 <= 0
Composicao11_116: Medicao_11 - Medicao_116 <= 0
Composicao12_118: - Medicao_118 + Medicao_12 <= 0
Composicao12_3: Medicao_12 - Medicao_3 <= 0
Composicao14_0: - Medicao_0 + Medicao_14 <= 0
Composicao14_62: Medicao_14 - Medicao_62 <= 0
Composicao14_63: Medicao_14 - Medicao_63 <= 0
Composicao14_78: Medicao_14 - Medicao_78 <= 0
Composicao15_0: - Medicao_0 + Medicao_15 <= 0
Composicao15_78: Medicao_15 - Medicao_78 <= 0
Composicao15_79: Medicao_15 - Medicao_79 <= 0
Composicao16_0: - Medicao_0 + Medicao_16 <= 0
Composicao16_63: Medicao_16 - Medicao_63 <= 0
Composicao16_64: Medicao_16 - Medicao_64 <= 0
Composicao17_0: - Medicao_0 + Medicao_17 <= 0
Composicao17_87: Medicao_17 - Medicao_87 <= 0
Composicao18_1: - Medicao_1 + Medicao_18 <= 0
Composicao18_62: Medicao_18 - Medicao_62 <= 0
Composicao18_63: Medicao_18 - Medicao_63 <= 0
Composicao19_1: - Medicao_1 + Medicao_19 <= 0
Composicao19_79: Medicao_19 - Medicao_79 <= 0
Composicao20_5: Medicao_20 - Medicao_5 <= 0
Composicao20_63: Medicao_20 - Medicao_63 <= 0
Composicao22_0: - Medicao_0 + Medicao_22 <= 0
Composicao22_29: Medicao_22 - Medicao_29 <= 0
Composicao22_62: Medicao_22 - Medicao_62 <= 0
Composicao22_78: Medicao_22 - Medicao_78 <= 0
Composicao23_0: - Medicao_0 + Medicao_23 <= 0
Composicao23_30: Medicao_23 - Medicao_30 <= 0
Composicao23_78: Medicao_23 - Medicao_78 <= 0
Composicao24_0: - Medicao_0 + Medicao_24 <= 0
Composicao24_29: Medicao_24 - Medicao_29 <= 0
Composicao24_64: Medicao_24 - Medicao_64 <= 0
Composicao25_0: - Medicao_0 + Medicao_25 <= 0
Composicao25_34: Medicao_25 - Medicao_34 <= 0
Composicao26_1: - Medicao_1 + Medicao_26 <= 0
Composicao26_29: Medicao_26 - Medicao_29 <= 0
Composicao26_62: Medicao_26 - Medicao_62 <= 0
Composicao27_1: - Medicao_1 + Medicao_27 <= 0
Composicao27_30: Medicao_27 - Medicao_30 <= 0
Composicao28_29: Medicao_28 - Medicao_29 <= 0
Composicao28_5: Medicao_28 - Medicao_5 <= 0
Composicao2_0: - Medicao_0 + Medicao_2 <= 0
Composicao2_78: Medicao_2 - Medicao_78 <= 0
Composicao31_29: - Medicao_29 + Medicao_31 <= 0
Composicao31_62: Medicao_31 - Medicao_62 <= 0
Composicao33_29: - Medicao_29 + Medicao_33 <= 0
Composicao33_63: Medicao_33 - Medicao_63 <= 0
Composicao35_29: - Medicao_29 + Medicao_35 <= 0
Composicao35_62: Medicao_35 - Medicao_62 <= 0
Composicao35_78: Medicao_35 - Medicao_78 <= 0
Composicao36_29: - Medicao_29 + Medicao_36 <= 0
Composicao36_64: Medicao_36 - Medicao_64 <= 0
Composicao37_30: - Medicao_30 + Medicao_37 <= 0
Composicao37_78: Medicao_37 - Medicao_78 <= 0
Composicao39_115: - Medicao_115 + Medicao_39 <= 0
Composicao39_29: - Medicao_29 + Medicao_39 <= 0
Composicao39_62: Medicao_39 - Medicao_62 <= 0
Composicao39_78: Medicao_39 - Medicao_78 <= 0
Composicao40_29: - Medicao_29 + Medicao_40 <= 0
Composicao40_62: Medicao_40 - Medicao_62 <= 0
Composicao40_81: Medicao_40 - Medicao_81 <= 0
Composicao41_115: - Medicao_115 + Medicao_41 <= 0
Composicao41_29: - Medicao_29 + Medicao_41 <= 0
Composicao41_64: Medicao_41 - Medicao_64 <= 0
Composicao42_29: - Medicao_29 + Medicao_42 <= 0
Composicao42_66: Medicao_42 - Medicao_66 <= 0
Composicao43_115: - Medicao_115 + Medicao_43 <= 0
Composicao43_30: - Medicao_30 + Medicao_43 <= 0
Composicao43_78: Medicao_43 - Medicao_78 <= 0
Composicao44_30: - Medicao_30 + Medicao_44 <= 0
Composicao44_81: Medicao_44 - Medicao_81 <= 0
Composicao45_115: - Medicao_115 + Medicao_45 <= 0
Composicao45_34: - Medicao_34 + Medicao_45 <= 0
Composicao47_115: - Medicao_115 + Medicao_47 <= 0
Composicao47_118: - Medicao_118 + Medicao_47 <= 0
Composicao47_29: - Medicao_29 + Medicao_47 <= 0
Composicao47_62: Medicao_47 - Medicao_62 <= 0
Composicao47_78: Medicao_47 - Medicao_78 <= 0
Composicao48_116: - Medicao_116 + Medicao_48 <= 0
Composicao48_29: - Medicao_29 + Medicao_48 <= 0
Composicao48_62: Medicao_48 - Medicao_62 <= 0
Composicao48_78: Medicao_48 - Medicao_78 <= 0
Composicao49_118: - Medicao_118 + Medicao_49 <= 0
Composicao49_29: - Medicao_29 + Medicao_49 <= 0
Composicao49_62: Medicao_49 - Medicao_62 <= 0
Composicao49_81: Medicao_49 - Medicao_81 <= 0
Composicao4_0: - Medicao_0 + Medicao_4 <= 0
Composicao4_115: - Medicao_115 + Medicao_4 <= 0
Composicao50_29: - Medicao_29 + Medicao_50 <= 0
Composicao50_62: Medicao_50 - Medicao_62 <= 0
Composicao50_83: Medicao_50 - Medicao_83 <= 0
Composicao51_115: - Medicao_115 + Medicao_51 <= 0
Composicao51_118: - Medicao_118 + Medicao_51 <= 0
Composicao51_29: - Medicao_29 + Medicao_51 <= 0
Composicao51_64: Medicao_51 - Medicao_64 <= 0
Composicao52_116: - Medicao_116 + Medicao_52 <= 0
Composicao52_29: - Medicao_29 + Medicao_52 <= 0
Composicao52_64: Medicao_52 - Medicao_64 <= 0
Composicao53_118: - Medicao_118 + Medicao_53 <= 0
Composicao53_29: - Medicao_29 + Medicao_53 <= 0
Composicao53_66: Medicao_53 - Medicao_66 <= 0
Composicao54_29: - Medicao_29 + Medicao_54 <= 0
Composicao54_70: Medicao_54 - Medicao_70 <= 0
Composicao55_115: - Medicao_115 + Medicao_55 <= 0
Composicao55_118: - Medicao_118 + Medicao_55 <= 0
Composicao55_30: - Medicao_30 + Medicao_55 <= 0
Composicao55_78: Medicao_55 - Medicao_78 <= 0
Composicao56_116: - Medicao_116 + Medicao_56 <= 0
Composicao56_30: - Medicao_30 + Medicao_56 <= 0
Composicao56_78: Medicao_56 - Medicao_78 <= 0
Composicao57_118: - Medicao_118 + Medicao_57 <= 0
Composicao57_30: - Medicao_30 + Medicao_57 <= 0
Composicao57_81: Medicao_57 - Medicao_81 <= 0
Composicao58_30: - Medicao_30 + Medicao_58 <= 0
Composicao58_83: Medicao_58 - Medicao_83 <= 0
Composicao59_115: - Medicao_115 + Medicao_59 <= 0
Composicao59_118: - Medicao_118 + Medicao_59 <= 0
Composicao59_34: - Medicao_34 + Medicao_59 <= 0
Composicao60_116: - Medicao_116 + Medicao_60 <= 0
Composicao60_34: - Medicao_34 + Medicao_60 <= 0
Composicao61_118: - Medicao_118 + Medicao_61 <= 0
Composicao61_38: - Medicao_38 + Medicao_61 <= 0
Composicao65_62: - Medicao_62 + Medicao_65 <= 0
Composicao65_78: Medicao_65 - Medicao_78 <= 0
Composicao67_115: - Medicao_115 + Medicao_67 <= 0
Composicao67_62: - Medicao_62 + Medicao_67 <= 0
Composicao67_78: Medicao_67 - Medicao_78 <= 0
Composicao68_62: - Medicao_62 + Medicao_68 <= 0
Composicao68_81: Medicao_68 - Medicao_81 <= 0
Composicao69_115: - Medicao_115 + Medicao_69 <= 0
Composicao69_64: - Medicao_64 + Medicao_69 <= 0
Composicao6_0: - Medicao_0 + Medicao_6 <= 0
Composicao6_62: Medicao_6 - Medicao_62 <= 0
Composicao6_78: Medicao_6 - Medicao_78 <= 0
Composicao71_115: - Medicao_115 + Medicao_71 <= 0
Composicao71_118: - Medicao_118 + Medicao_71 <= 0
Composicao71_62: - Medicao_62 + Medicao_71 <= 0
Composicao71_78: Medicao_71 - Medicao_78 <= 0
Composicao72_116: - Medicao_116 + Medicao_72 <= 0
Composicao72_62: - Medicao_62 + Medicao_72 <= 0
Composicao72_78: Medicao_72 - Medicao_78 <= 0
Composicao73_118: - Medicao_118 + Medicao_73 <= 0
Composicao73_62: - Medicao_62 + Medicao_73 <= 0
Composicao73_81: Medicao_73 - Medicao_81 <= 0
Composicao74_62: - Medicao_62 + Medicao_74 <= 0
Composicao74_83: Medicao_74 - Medicao_83 <= 0
Composicao75_115: - Medicao_115 + Medicao_75 <= 0
Composicao75_118: - Medicao_118 + Medicao_75 <= 0
Composicao75_64: - Medicao_64 + Medicao_75 <= 0
Composicao76_116: - Medicao_116 + Medicao_76 <= 0
Composicao76_64: - Medicao_64 + Medicao_76 <= 0
Composicao77_118: - Medicao_118 + Medicao_77 <= 0
Composicao77_66: - Medicao_66 + Medicao_77 <= 0
Composicao7_0: - Medicao_0 + Medicao_7 <= 0
Composicao7_64: - Medicao_64 + Medicao_7 <= 0
Composicao80_62: - Medicao_62 + Medicao_80 <= 0
Composicao80_63: - Medicao_63 + Medicao_80 <= 0
Composicao82_115: - Medicao_115 + Medicao_82 <= 0
Composicao82_78: - Medicao_78 + Medicao_82 <= 0
Composicao84_115: - Medicao_115 + Medicao_84 <= 0
Composicao84_118: - Medicao_118 + Medicao_84 <= 0
Composicao84_78: - Medicao_78 + Medicao_84 <= 0
Composicao85_116: - Medicao_116 + Medicao_85 <= 0
Composicao85_78: - Medicao_78 + Medicao_85 <= 0
Composicao86_118: - Medicao_118 + Medicao_86 <= 0
Composicao86_81: - Medicao_81 + Medicao_86 <= 0
Composicao88_62: - Medicao_62 + Medicao_88 <= 0
Composicao88_63: - Medicao_63 + Medicao_88 <= 0
Composicao88_78: - Medicao_78 + Medicao_88 <= 0
Composicao89_63: - Medicao_63 + Medicao_89 <= 0
Composicao89_64: - Medicao_64 + Medicao_89 <= 0
Composicao8_1: - Medicao_1 + Medicao_8 <= 0
Composicao8_62: - Medicao_62 + Medicao_8 <= 0
Composicao90_78: - Medicao_78 + Medicao_90 <= 0
Composicao90_79: - Medicao_79 + Medicao_90 <= 0
Composicao92_115: - Medicao_115 + Medicao_92 <= 0
Composicao92_62: - Medicao_62 + Medicao_92 <= 0
Composicao92_63: - Medicao_63 + Medicao_92 <= 0
Composicao92_78: - Medicao_78 + Medicao_92 <= 0
Composicao93_62: - Medicao_62 + Medicao_93 <= 0
Composicao93_63: - Medicao_63 + Medicao_93 <= 0
Composicao93_81: - Medicao_81 + Medicao_93 <= 0
Composicao94_115: - Medicao_115 + Medicao_94 <= 0
Composicao94_63: - Medicao_63 + Medicao_94 <= 0
Composicao94_64: - Medicao_64 + Medicao_94 <= 0
Composicao95_63: - Medicao_63 + Medicao_95 <= 0
Composicao95_66: - Medicao_66 + Medicao_95 <= 0
Composicao96_115: - Medicao_115 + Medicao_96 <= 0
Composicao96_78: - Medicao_78 + Medicao_96 <= 0
Composicao96_79: - Medicao_79 + Medicao_96 <= 0
Composicao97_79: - Medicao_79 + Medicao_97 <= 0
Composicao97_81: - Medicao_81 + Medicao_97 <= 0
Composicao98_115: - Medicao_115 + Medicao_98 <= 0
Composicao98_87: - Medicao_87 + Medicao_98 <= 0
Max_Probes_Link0_5: Medicao_0 + Medicao_1 + Medicao_13 + Medicao_21
 + Medicao_3 + Medicao_5 + Medicao_9 <= 300
Max_Probes_Link1_2: Medicao_21 + Medicao_29 + Medicao_30 + Medicao_32
 + Medicao_34 + Medicao_38 + Medicao_46 <= 1000
Max_Probes_Link2_3: Medicao_13 + Medicao_21 + Medicao_30 + Medicao_34
 + Medicao_38 + Medicao_46 + Medicao_5 + Medicao_62 + Medicao_64 + Medicao_66
 + Medicao_70 + Medicao_79 + Medicao_87 + Medicao_91 + Medicao_99 <= 300
Max_Probes_Link2_4: Medicao_13 + Medicao_32 + Medicao_63 + Medicao_79
 + Medicao_87 + Medicao_91 + Medicao_99 <= 1000
Max_Probes_Link3_5: Medicao_1 + Medicao_13 + Medicao_21 + Medicao_34
 + Medicao_38 + Medicao_46 + Medicao_5 + Medicao_64 + Medicao_66 + Medicao_70
 + Medicao_78 + Medicao_81 + Medicao_83 + Medicao_87 + Medicao_91 + Medicao_99
 <= 1000
Max_Probes_Link5_6: Medicao_115 + Medicao_116 + Medicao_3 + Medicao_38
 + Medicao_46 + Medicao_66 + Medicao_70 + Medicao_81 + Medicao_83 + Medicao_9
 + Medicao_91 + Medicao_99 <= 1000
Max_Probes_Link6_7: Medicao_116 + Medicao_118 + Medicao_46 + Medicao_70
 + Medicao_83 + Medicao_9 + Medicao_99 <= 1000
Max_Probes_Router0: Medicao_10 + Medicao_11 + Medicao_12 + Medicao_14
 + Medicao_15 + Medicao_16 + Medicao_17 + Medicao_18 + Medicao_19 + Medicao_2
 + Medicao_20 + Medicao_22 + Medicao_23 + Medicao_24 + Medicao_25 + Medicao_26
 + Medicao_27 + Medicao_28 + Medicao_4 + Medicao_6 + Medicao_7 + Medicao_8
 <= 2
Max_Probes_Router1: Medicao_22 + Medicao_23 + Medicao_24 + Medicao_25
 + Medicao_26 + Medicao_27 + Medicao_28 + Medicao_31 + Medicao_33 + Medicao_35
 + Medicao_36 + Medicao_37 + Medicao_39 + Medicao_40 + Medicao_41 + Medicao_42
 + Medicao_43 + Medicao_44 + Medicao_45 + Medicao_47 + Medicao_48 + Medicao_49
 + Medicao_50 + Medicao_51 + Medicao_52 + Medicao_53 + Medicao_54 + Medicao_55
 + Medicao_56 + Medicao_57 + Medicao_58 + Medicao_59 + Medicao_60 + Medicao_61
 <= 2
Max_Probes_Router2: Medicao_6 + Medicao_65 + Medicao_67 + Medicao_68
 + Medicao_69 + Medicao_7 + Medicao_71 + Medicao_72 + Medicao_73 + Medicao_74
 + Medicao_75 + Medicao_76 + Medicao_77 + Medicao_8 <= 6
Max_Probes_Router3: Medicao_2 + Medicao_31 + Medicao_80 + Medicao_82
 + Medicao_84 + Medicao_85 + Medicao_86 <= 4
Max_Probes_Router4: Medicao_100 + Medicao_101 + Medicao_102 + Medicao_103
 + Medicao_104 + Medicao_105 + Medicao_106 + Medicao_107 + Medicao_108
 + Medicao_109 + Medicao_110 + Medicao_111 + Medicao_112 + Medicao_113
 + Medicao_114 + Medicao_14 + Medicao_15 + Medicao_16 + Medicao_17
 + Medicao_18 + Medicao_19 + Medicao_20 + Medicao_33 + Medicao_80 + Medicao_88
 + Medicao_89 + Medicao_90 + Medicao_92 + Medicao_93 + Medicao_94 + Medicao_95
 + Medicao_96 + Medicao_97 + Medicao_98 <= 2
Max_Probes_Router5: Medicao_117 + Medicao_35 + Medicao_36 + Medicao_37
 + Medicao_65 + Medicao_88 + Medicao_89 + Medicao_90 <= 6
Max_Probes_Router6: Medicao_39 + Medicao_4 + Medicao_40 + Medicao_41
 + Medicao_42 + Medicao_43 + Medicao_44 + Medicao_45 + Medicao_67 + Medicao_68
 + Medicao_69 + Medicao_82 + Medicao_92 + Medicao_93 + Medicao_94 + Medicao_95
 + Medicao_96 + Medicao_97 + Medicao_98 <= 4
Max_Probes_Router7: Medicao_10 + Medicao_100 + Medicao_101 + Medicao_102
 + Medicao_103 + Medicao_104 + Medicao_105 + Medicao_106 + Medicao_107
 + Medicao_108 + Medicao_109 + Medicao_11 + Medicao_110 + Medicao_111
 + Medicao_112 + Medicao_113 + Medicao_114 + Medicao_117 + Medicao_12
 + Medicao_47 + Medicao_48 + Medicao_49 + Medicao_50 + Medicao_51 + Medicao_52
 + Medicao_53 + Medicao_54 + Medicao_55 + Medicao_56 + Medicao_57 + Medicao_58
 + Medicao_59 + Medicao_60 + Medicao_61 + Medicao_71 + Medicao_72 + Medicao_73
 + Medicao_74 + Medicao_75 + Medicao_76 + Medicao_77 + Medicao_84 + Medicao_85
 + Medicao_86 <= 2
Minimo_Sondas_Medicao0: Medicao_0 >= 1
Minimo_Sondas_Medicao1: Medicao_1 + Medicao_2 >= 1
Minimo_Sondas_Medicao10: Medicao_34 + Medicao_35 + Medicao_36 + Medicao_37
 >= 1
Minimo_Sondas_Medicao11: Medicao_38 + Medicao_39 + Medicao_40 + Medicao_41
 + Medicao_42 + Medicao_43 + Medicao_44 + Medicao_45 >= 1
Minimo_Sondas_Medicao12: Medicao_46 + Medicao_47 + Medicao_48 + Medicao_49
 + Medicao_50 + Medicao_51 + Medicao_52 + Medicao_53 + Medicao_54 + Medicao_55
 + Medicao_56 + Medicao_57 + Medicao_58 + Medicao_59 + Medicao_60 + Medicao_61
 >= 1
Minimo_Sondas_Medicao13: Medicao_62 >= 1
Minimo_Sondas_Medicao14: Medicao_63 >= 1
Minimo_Sondas_Medicao15: Medicao_64 + Medicao_65 >= 1
Minimo_Sondas_Medicao16: Medicao_66 + Medicao_67 + Medicao_68 + Medicao_69
 >= 1
Minimo_Sondas_Medicao17: Medicao_70 + Medicao_71 + Medicao_72 + Medicao_73
 + Medicao_74 + Medicao_75 + Medicao_76 + Medicao_77 >= 1
Minimo_Sondas_Medicao18: Medicao_78 >= 1
Minimo_Sondas_Medicao19: Medicao_79 + Medicao_80 >= 1
Minimo_Sondas_Medicao2: Medicao_3 + Medicao_4 >= 1
Minimo_Sondas_Medicao20: Medicao_81 + Medicao_82 >= 1
Minimo_Sondas_Medicao21: Medicao_83 + Medicao_84 + Medicao_85 + Medicao_86
 >= 1
Minimo_Sondas_Medicao22: Medicao_87 + Medicao_88 + Medicao_89 + Medicao_90
 >= 1
Minimo_Sondas_Medicao23: Medicao_91 + Medicao_92 + Medicao_93 + Medicao_94
 + Medicao_95 + Medicao_96 + Medicao_97 + Medicao_98 >= 1
Minimo_Sondas_Medicao24: Medicao_100 + Medicao_101 + Medicao_102 + Medicao_103
 + Medicao_104 + Medicao_105 + Medicao_106 + Medicao_107 + Medicao_108
 + Medicao_109 + Medicao_110 + Medicao_111 + Medicao_112 + Medicao_113
 + Medicao_114 + Medicao_99 >= 1
Minimo_Sondas_Medicao25: Medicao_115 >= 1
Minimo_Sondas_Medicao26: Medicao_116 + Medicao_117 >= 1
Minimo_Sondas_Medicao27: Medicao_118 >= 1
Minimo_Sondas_Medicao3: Medicao_5 + Medicao_6 + Medicao_7 + Medicao_8 >= 1
Minimo_Sondas_Medicao4: Medicao_10 + Medicao_11 + Medicao_12 + Medicao_9 >= 1
Minimo_Sondas_Medicao5: Medicao_13 + Medicao_14 + Medicao_15 + Medicao_16
 + Medicao_17 + Medicao_18 + Medicao_19 + Medicao_20 >= 1
Minimo_Sondas_Medicao6: Medicao_21 + Medicao_22 + Medicao_23 + Medicao_24
 + Medicao_25 + Medicao_26 + Medicao_27 + Medicao_28 >= 1
Minimo_Sondas_Medicao7: Medicao_29 >= 1
Minimo_Sondas_Medicao8: Medicao_30 + Medicao_31 >= 1
Minimo_Sondas_Medicao9: Medicao_32 + Medicao_33 >= 1
Binaries
Medicao_0
Medicao_1
Medicao_10
Medicao_100
Medicao_101
Medicao_102
Medicao_103
Medicao_104
Medicao_105
Medicao_106
Medicao_107
Medicao_108
Medicao_109
Medicao_11
Medicao_110
Medicao_111
Medicao_112
Medicao_113
Medicao_114
Medicao_115
Medicao_116
Medicao_117
Medicao_118
Medicao_12
Medicao_13
Medicao_14
Medicao_15
Medicao_16
Medicao_17
Medicao_18
Medicao_19
Medicao_2
Medicao_20
Medicao_21
Medicao_22
Medicao_23
Medicao_24
Medicao_25
Medicao_26
Medicao_27
Medicao_28
Medicao_29
Medicao_3
Medicao_30
Medicao_31
Medicao_32
Medicao_33
Medicao_34
Medicao_35
Medicao_36
Medicao_37
Medicao_38
Medicao_39
Medicao_4
Medicao_40
Medicao_41
Medicao_42
Medicao_43
Medicao_44
Medicao_45
Medicao_46
Medicao_47
Medicao_48
Medicao_49
Medicao_5
Medicao_50
Medicao_51
Medicao_52
Medicao_53
Medicao_54
Medicao_55
Medicao_56
Medicao_57
Medicao_58
Medicao_59
Medicao_6
Medicao_60
Medicao_61
Medicao_62
Medicao_63
Medicao_64
Medicao_65
Medicao_66
Medicao_67
Medicao_68
Medicao_69
Medicao_7
Medicao_70
Medicao_71
Medicao_72
Medicao_73
Medicao_74
Medicao_75
Medicao_76
Medicao_77
Medicao_78
Medicao_79
Medicao_8
Medicao_80
Medicao_81
Medicao_82
Medicao_83
Medicao_84
Medicao_85
Medicao_86
Medicao_87
Medicao_88
Medicao_89
Medicao_9
Medicao_90
Medicao_91
Medicao_92
Medicao_93
Medicao_94
Medicao_95
Medicao_96
Medicao_97
Medicao_98
Medicao_99
End
